26
1 0 17
2 0 25
2 1 2
3 0 1
3 1 28
3 2 18
4 0 23
4 1 2
4 2 12
4 3 26
5 0 9
5 1 12
5 2 25
5 3 27
5 4 6
6 0 26
6 1 21
6 2 3
6 3 18
6 4 5
6 5 1
7 0 4
7 1 10
7 2 18
7 3 22
7 4 10
7 5 18
7 6 4
8 0 14
8 1 5
8 2 3
8 3 22
8 4 8
8 5 12
8 6 7
8 7 16
9 0 7
9 1 11
9 2 18
9 3 27
9 4 23
9 5 22
9 6 26
9 7 10
9 8 15
10 0 6
10 1 4
10 2 21
10 3 14
10 4 27
10 5 21
10 6 25
10 7 19
10 8 1
10 9 1
11 0 16
11 1 3
11 2 20
11 3 22
11 4 27
11 5 25
11 6 18
11 7 4
11 8 11
11 9 23
11 10 7
12 0 12
12 1 16
12 2 21
12 3 17
12 4 18
12 5 7
12 6 1
12 7 9
12 8 22
12 9 2
12 10 2
12 11 5
13 0 22
13 1 23
13 2 3
13 3 15
13 4 8
13 5 13
13 6 25
13 7 1
13 8 14
13 9 19
13 10 3
13 11 13
13 12 3
14 0 19
14 1 22
14 2 26
14 3 26
14 4 17
14 5 5
14 6 1
14 7 22
14 8 28
14 9 2
14 10 22
14 11 10
14 12 16
14 13 16
15 0 13
15 1 27
15 2 21
15 3 17
15 4 27
15 5 14
15 6 23
15 7 15
15 8 21
15 9 7
15 10 2
15 11 11
15 12 23
15 13 7
15 14 20
16 0 11
16 1 20
16 2 22
16 3 18
16 4 23
16 5 10
16 6 10
16 7 14
16 8 10
16 9 8
16 10 9
16 11 21
16 12 12
16 13 12
16 14 24
16 15 21
17 0 9
17 1 20
17 2 2
17 3 12
17 4 22
17 5 27
17 6 14
17 7 5
17 8 22
17 9 25
17 10 26
17 11 20
17 12 13
17 13 14
17 14 21
17 15 18
17 16 9
18 0 13
18 1 5
18 2 27
18 3 9
18 4 27
18 5 20
18 6 21
18 7 13
18 8 3
18 9 1
18 10 11
18 11 28
18 12 25
18 13 27
18 14 21
18 15 4
18 16 22
18 17 16
19 0 20
19 1 10
19 2 13
19 3 3
19 4 20
19 5 7
19 6 4
19 7 8
19 8 28
19 9 16
19 10 9
19 11 27
19 12 6
19 13 5
19 14 11
19 15 4
19 16 8
19 17 24
19 18 6
20 0 4
20 1 10
20 2 6
20 3 28
20 4 5
20 5 28
20 6 27
20 7 4
20 8 18
20 9 7
20 10 22
20 11 16
20 12 28
20 13 20
20 14 5
20 15 20
20 16 27
20 17 16
20 18 26
20 19 13
21 0 8
21 1 23
21 2 9
21 3 19
21 4 18
21 5 28
21 6 11
21 7 20
21 8 7
21 9 15
21 10 8
21 11 19
21 12 22
21 13 15
21 14 27
21 15 17
21 16 19
21 17 22
21 18 28
21 19 15
21 20 4
22 0 15
22 1 11
22 2 21
22 3 9
22 4 19
22 5 18
22 6 12
22 7 15
22 8 26
22 9 20
22 10 12
22 11 28
22 12 8
22 13 1
22 14 16
22 15 13
22 16 28
22 17 25
22 18 24
22 19 4
22 20 21
22 21 2
23 0 27
23 1 1
23 2 9
23 3 7
23 4 17
23 5 6
23 6 4
23 7 15
23 8 17
23 9 11
23 10 8
23 11 24
23 12 18
23 13 5
23 14 22
23 15 27
23 16 21
23 17 3
23 18 22
23 19 20
23 20 25
23 21 2
23 22 11
24 0 22
24 1 20
24 2 11
24 3 15
24 4 12
24 5 8
24 6 22
24 7 22
24 8 19
24 9 11
24 10 1
24 11 17
24 12 24
24 13 8
24 14 16
24 15 5
24 16 27
24 17 22
24 18 7
24 19 10
24 20 22
24 21 2
24 22 3
24 23 1
25 0 10
25 1 27
25 2 9
25 3 19
25 4 16
25 5 24
25 6 25
25 7 24
25 8 24
25 9 2
25 10 27
25 11 25
25 12 20
25 13 7
25 14 20
25 15 5
25 16 21
25 17 26
25 18 19
25 19 18
25 20 7
25 21 15
25 22 4
25 23 16
25 24 27
